202 10
2 2 2 2 2 2 2 2 2 2
0  0 0 0 0 0 0 0 0 0 0  20 2 12 22 32 42 52 62 72 82 92 102 112 122 132 142 152 162 172 182 192
54  0 0 0 0 0 0 1 0 0 0  1 3
87  1 0 0 0 0 0 0 0 0 0  1 4
48  0 0 0 0 1 0 0 0 0 0  1 5
60  0 0 0 1 0 0 0 0 0 0  1 6
39  0 0 0 0 0 0 0 1 0 0  1 7
35  0 0 0 0 0 0 0 0 1 0  1 8
72  0 1 0 0 0 0 0 0 0 0  1 9
95  0 0 0 0 0 1 0 0 0 0  1 10
66  0 0 1 0 0 0 0 0 0 0  1 11
5  0 0 0 0 0 0 0 0 0 1  1 202
20  0 0 0 1 0 0 0 0 0 0  1 13
46  0 0 0 0 0 0 0 0 0 1  1 14
34  0 0 0 0 0 0 1 0 0 0  1 15
55  0 0 0 0 0 1 0 0 0 0  1 16
97  1 0 0 0 0 0 0 0 0 0  1 17
19  0 0 0 0 0 0 0 0 1 0  1 18
59  0 0 0 0 1 0 0 0 0 0  1 19
21  0 0 1 0 0 0 0 0 0 0  1 20
37  0 0 0 0 0 0 0 1 0 0  1 21
46  0 1 0 0 0 0 0 0 0 0  1 202
45  0 0 0 0 1 0 0 0 0 0  1 23
24  0 1 0 0 0 0 0 0 0 0  1 24
28  0 0 0 0 0 0 0 0 1 0  1 25
28  1 0 0 0 0 0 0 0 0 0  1 26
83  0 0 0 0 0 0 0 1 0 0  1 27
78  0 0 0 0 0 0 1 0 0 0  1 28
23  0 0 0 0 0 1 0 0 0 0  1 29
25  0 0 0 1 0 0 0 0 0 0  1 30
5  0 0 0 0 0 0 0 0 0 1  1 31
73  0 0 1 0 0 0 0 0 0 0  1 202
12  0 0 0 0 0 0 0 0 0 1  1 33
37  0 1 0 0 0 0 0 0 0 0  1 34
38  0 0 0 0 1 0 0 0 0 0  1 35
71  0 0 0 1 0 0 0 0 0 0  1 36
33  0 0 0 0 0 0 0 0 1 0  1 37
12  0 0 1 0 0 0 0 0 0 0  1 38
55  0 0 0 0 0 0 1 0 0 0  1 39
53  1 0 0 0 0 0 0 0 0 0  1 40
87  0 0 0 0 0 0 0 1 0 0  1 41
29  0 0 0 0 0 1 0 0 0 0  1 202
83  0 0 0 1 0 0 0 0 0 0  1 43
49  0 0 1 0 0 0 0 0 0 0  1 44
23  0 0 0 0 0 0 1 0 0 0  1 45
27  0 0 0 0 0 0 0 0 0 1  1 46
65  0 0 0 0 0 0 0 1 0 0  1 47
48  1 0 0 0 0 0 0 0 0 0  1 48
90  0 0 0 0 1 0 0 0 0 0  1 49
7  0 0 0 0 0 1 0 0 0 0  1 50
40  0 1 0 0 0 0 0 0 0 0  1 51
17  0 0 0 0 0 0 0 0 1 0  1 202
66  0 1 0 0 0 0 0 0 0 0  1 53
25  0 0 0 0 1 0 0 0 0 0  1 54
62  1 0 0 0 0 0 0 0 0 0  1 55
84  0 0 1 0 0 0 0 0 0 0  1 56
13  0 0 0 0 0 0 0 0 0 1  1 57
64  0 0 0 0 0 0 1 0 0 0  1 58
46  0 0 0 0 0 0 0 1 0 0  1 59
59  0 0 0 0 0 0 0 0 1 0  1 60
19  0 0 0 0 0 1 0 0 0 0  1 61
85  0 0 0 1 0 0 0 0 0 0  1 202
73  0 1 0 0 0 0 0 0 0 0  1 63
80  0 0 0 1 0 0 0 0 0 0  1 64
41  1 0 0 0 0 0 0 0 0 0  1 65
53  0 0 1 0 0 0 0 0 0 0  1 66
47  0 0 0 0 0 0 0 0 0 1  1 67
57  0 0 0 0 0 0 0 1 0 0  1 68
74  0 0 0 0 0 0 0 0 1 0  1 69
14  0 0 0 0 1 0 0 0 0 0  1 70
67  0 0 0 0 0 0 1 0 0 0  1 71
88  0 0 0 0 0 1 0 0 0 0  1 202
64  0 0 0 0 0 1 0 0 0 0  1 73
84  0 0 0 1 0 0 0 0 0 0  1 74
46  0 0 0 0 0 0 1 0 0 0  1 75
78  0 1 0 0 0 0 0 0 0 0  1 76
84  1 0 0 0 0 0 0 0 0 0  1 77
26  0 0 0 0 0 0 0 1 0 0  1 78
28  0 0 0 0 0 0 0 0 1 0  1 79
52  0 0 0 0 0 0 0 0 0 1  1 80
41  0 0 1 0 0 0 0 0 0 0  1 81
63  0 0 0 0 1 0 0 0 0 0  1 202
11  0 1 0 0 0 0 0 0 0 0  1 83
64  1 0 0 0 0 0 0 0 0 0  1 84
67  0 0 0 0 0 0 0 1 0 0  1 85
85  0 0 0 0 1 0 0 0 0 0  1 86
10  0 0 0 1 0 0 0 0 0 0  1 87
73  0 0 0 0 0 1 0 0 0 0  1 88
38  0 0 0 0 0 0 0 0 0 1  1 89
95  0 0 0 0 0 0 0 0 1 0  1 90
97  0 0 0 0 0 0 1 0 0 0  1 91
17  0 0 1 0 0 0 0 0 0 0  1 202
60  0 0 0 0 1 0 0 0 0 0  1 93
32  0 0 0 0 0 0 0 0 1 0  1 94
95  0 0 1 0 0 0 0 0 0 0  1 95
93  0 0 0 1 0 0 0 0 0 0  1 96
65  0 1 0 0 0 0 0 0 0 0  1 97
85  0 0 0 0 0 0 1 0 0 0  1 98
43  0 0 0 0 0 0 0 1 0 0  1 99
85  0 0 0 0 0 0 0 0 0 1  1 100
46  0 0 0 0 0 1 0 0 0 0  1 101
59  1 0 0 0 0 0 0 0 0 0  1 202
54  0 0 0 0 0 0 1 0 0 0  1 103
87  1 0 0 0 0 0 0 0 0 0  1 104
48  0 0 0 0 1 0 0 0 0 0  1 105
60  0 0 0 1 0 0 0 0 0 0  1 106
39  0 0 0 0 0 0 0 1 0 0  1 107
35  0 0 0 0 0 0 0 0 1 0  1 108
72  0 1 0 0 0 0 0 0 0 0  1 109
95  0 0 0 0 0 1 0 0 0 0  1 110
66  0 0 1 0 0 0 0 0 0 0  1 111
5  0 0 0 0 0 0 0 0 0 1  1 202
20  0 0 0 1 0 0 0 0 0 0  1 113
46  0 0 0 0 0 0 0 0 0 1  1 114
34  0 0 0 0 0 0 1 0 0 0  1 115
55  0 0 0 0 0 1 0 0 0 0  1 116
97  1 0 0 0 0 0 0 0 0 0  1 117
19  0 0 0 0 0 0 0 0 1 0  1 118
59  0 0 0 0 1 0 0 0 0 0  1 119
21  0 0 1 0 0 0 0 0 0 0  1 120
37  0 0 0 0 0 0 0 1 0 0  1 121
46  0 1 0 0 0 0 0 0 0 0  1 202
45  0 0 0 0 1 0 0 0 0 0  1 123
24  0 1 0 0 0 0 0 0 0 0  1 124
28  0 0 0 0 0 0 0 0 1 0  1 125
28  1 0 0 0 0 0 0 0 0 0  1 126
83  0 0 0 0 0 0 0 1 0 0  1 127
78  0 0 0 0 0 0 1 0 0 0  1 128
23  0 0 0 0 0 1 0 0 0 0  1 129
25  0 0 0 1 0 0 0 0 0 0  1 130
5  0 0 0 0 0 0 0 0 0 1  1 131
73  0 0 1 0 0 0 0 0 0 0  1 202
12  0 0 0 0 0 0 0 0 0 1  1 133
37  0 1 0 0 0 0 0 0 0 0  1 134
38  0 0 0 0 1 0 0 0 0 0  1 135
71  0 0 0 1 0 0 0 0 0 0  1 136
33  0 0 0 0 0 0 0 0 1 0  1 137
12  0 0 1 0 0 0 0 0 0 0  1 138
55  0 0 0 0 0 0 1 0 0 0  1 139
53  1 0 0 0 0 0 0 0 0 0  1 140
87  0 0 0 0 0 0 0 1 0 0  1 141
29  0 0 0 0 0 1 0 0 0 0  1 202
83  0 0 0 1 0 0 0 0 0 0  1 143
49  0 0 1 0 0 0 0 0 0 0  1 144
23  0 0 0 0 0 0 1 0 0 0  1 145
27  0 0 0 0 0 0 0 0 0 1  1 146
65  0 0 0 0 0 0 0 1 0 0  1 147
48  1 0 0 0 0 0 0 0 0 0  1 148
90  0 0 0 0 1 0 0 0 0 0  1 149
7  0 0 0 0 0 1 0 0 0 0  1 150
40  0 1 0 0 0 0 0 0 0 0  1 151
17  0 0 0 0 0 0 0 0 1 0  1 202
66  0 1 0 0 0 0 0 0 0 0  1 153
25  0 0 0 0 1 0 0 0 0 0  1 154
62  1 0 0 0 0 0 0 0 0 0  1 155
84  0 0 1 0 0 0 0 0 0 0  1 156
13  0 0 0 0 0 0 0 0 0 1  1 157
64  0 0 0 0 0 0 1 0 0 0  1 158
46  0 0 0 0 0 0 0 1 0 0  1 159
59  0 0 0 0 0 0 0 0 1 0  1 160
19  0 0 0 0 0 1 0 0 0 0  1 161
85  0 0 0 1 0 0 0 0 0 0  1 202
73  0 1 0 0 0 0 0 0 0 0  1 163
80  0 0 0 1 0 0 0 0 0 0  1 164
41  1 0 0 0 0 0 0 0 0 0  1 165
53  0 0 1 0 0 0 0 0 0 0  1 166
47  0 0 0 0 0 0 0 0 0 1  1 167
57  0 0 0 0 0 0 0 1 0 0  1 168
74  0 0 0 0 0 0 0 0 1 0  1 169
14  0 0 0 0 1 0 0 0 0 0  1 170
67  0 0 0 0 0 0 1 0 0 0  1 171
88  0 0 0 0 0 1 0 0 0 0  1 202
64  0 0 0 0 0 1 0 0 0 0  1 173
84  0 0 0 1 0 0 0 0 0 0  1 174
46  0 0 0 0 0 0 1 0 0 0  1 175
78  0 1 0 0 0 0 0 0 0 0  1 176
84  1 0 0 0 0 0 0 0 0 0  1 177
26  0 0 0 0 0 0 0 1 0 0  1 178
28  0 0 0 0 0 0 0 0 1 0  1 179
52  0 0 0 0 0 0 0 0 0 1  1 180
41  0 0 1 0 0 0 0 0 0 0  1 181
63  0 0 0 0 1 0 0 0 0 0  1 202
11  0 1 0 0 0 0 0 0 0 0  1 183
64  1 0 0 0 0 0 0 0 0 0  1 184
67  0 0 0 0 0 0 0 1 0 0  1 185
85  0 0 0 0 1 0 0 0 0 0  1 186
10  0 0 0 1 0 0 0 0 0 0  1 187
73  0 0 0 0 0 1 0 0 0 0  1 188
38  0 0 0 0 0 0 0 0 0 1  1 189
95  0 0 0 0 0 0 0 0 1 0  1 190
97  0 0 0 0 0 0 1 0 0 0  1 191
17  0 0 1 0 0 0 0 0 0 0  1 202
60  0 0 0 0 1 0 0 0 0 0  1 193
32  0 0 0 0 0 0 0 0 1 0  1 194
95  0 0 1 0 0 0 0 0 0 0  1 195
93  0 0 0 1 0 0 0 0 0 0  1 196
65  0 1 0 0 0 0 0 0 0 0  1 197
85  0 0 0 0 0 0 1 0 0 0  1 198
43  0 0 0 0 0 0 0 1 0 0  1 199
85  0 0 0 0 0 0 0 0 0 1  1 200
46  0 0 0 0 0 1 0 0 0 0  1 201
59  1 0 0 0 0 0 0 0 0 0  1 202
0  0 0 0 0 0 0 0 0 0 0  0
